# 27604
param n := 30;
param s := 1;
set E :=  (0,5) (0,19) (1,8) (2,8) (2,11) (2,12) (2,15) (2,18) (2,19) (3,14) (3,23) (4,17) (6,13) (6,16) (6,28) (7,12) (7,16) (8,26) (8,27) (9,19) (10,14) (10,19) (10,24) (13,15) (14,22) (15,16) (15,17) (17,20) (19,21) (25,26) (25,29);
